c turning on binary mode checking
c parsing input formula with 259840 variables and 1039929 clauses
c finished parsing, read 3255465 bytes from proof file
c detected empty clause; start verification via backward checking
c 3236 of 1039929 clauses in core                            
c 1150 of 127377 lemmas in core using 40838 resolution steps
c 0 RAT lemmas in core; 174 redundant literals in core lemmas
s VERIFIED
c verification time: 1.327 seconds
